set VV := 0 1 2 3 4 5 6 7 8 9 10 11 12 ;
set VS := 0 1 2 3 4 5 6 7 8 9 10 11 12 13 14 15 16 17 18 19 20 21 22 23 24 25 26 27 28 29 30 ;
param cv := 
0 23
1 19
2 11
3 23
4 22
5 19
6 23
7 15
8 19
9 14
10 24
11 16
12 20
;
param cs := 
0 38
1 38
2 28
3 21
4 35
5 38
6 36
7 25
8 37
9 38
10 20
11 39
12 28
13 30
14 22
15 25
16 25
17 25
18 24
19 38
20 27
21 32
22 24
23 38
24 32
25 35
26 26
27 24
28 22
29 20
30 34
;
param bv:	 0 1 2 3 4 5 6 7 8 9 10 11 12 := 
		0 0 0 0 0 0 0 21 0 0 0 0 0 20 
		1 0 0 0 0 0 20 20 19 0 0 0 0 0 
		2 0 0 0 0 0 12 19 0 0 0 21 0 0 
		3 0 0 0 0 22 0 0 24 0 0 0 0 0 
		4 0 0 0 0 0 0 23 0 0 0 0 0 0 
		5 0 0 0 0 0 0 0 0 0 0 0 17 0 
		6 0 0 0 0 0 0 0 0 0 0 0 0 18 
		7 0 0 0 0 0 0 0 0 0 0 0 0 0 
		8 0 0 0 0 0 0 0 0 0 0 0 0 11 
		9 0 0 0 0 0 0 0 0 0 0 22 0 0 
		10 0 0 0 0 0 0 0 0 0 0 0 0 0 
		11 0 0 0 0 0 0 0 0 0 0 0 0 0 
		12 0 0 0 0 0 0 0 0 0 0 0 0 0 
;
param bs:	 0 1 2 3 4 5 6 7 8 9 10 11 12 13 14 15 16 17 18 19 20 21 22 23 24 25 26 27 28 29 30 := 
		0 0 0 0 0 0 0 0 0 0 38 0 0 0 0 0 0 0 0 0 0 0 0 0 0 0 0 0 0 0 0 0 
		1 0 0 0 0 0 0 0 0 0 0 0 0 0 0 0 0 0 0 0 0 21 28 0 0 0 0 0 0 0 0 0 
		2 0 0 0 0 0 33 0 36 0 0 0 0 0 0 0 0 0 0 32 0 0 0 0 0 0 34 0 0 30 0 0 
		3 0 0 0 0 0 0 0 0 0 33 0 0 0 0 0 0 0 0 0 0 0 0 0 0 0 0 0 0 0 0 0 
		4 0 0 0 0 0 0 31 0 0 0 0 0 0 0 0 0 26 0 0 0 34 0 0 0 0 0 0 0 0 0 0 
		5 0 0 33 0 0 0 0 0 0 0 0 0 0 0 33 0 0 0 0 25 0 0 0 0 31 0 0 0 27 0 0 
		6 0 0 0 0 31 0 0 0 0 0 0 0 0 0 0 0 0 0 0 0 0 0 0 0 0 0 35 37 0 0 0 
		7 0 0 36 0 0 0 0 0 0 0 0 0 30 0 20 0 0 0 0 0 0 0 0 28 0 32 0 40 0 0 0 
		8 0 0 0 0 0 0 0 0 0 33 26 34 0 0 0 0 0 31 0 0 0 21 0 0 21 0 0 21 0 26 0 
		9 38 0 0 33 0 0 0 0 33 0 0 0 0 0 0 0 0 0 0 0 0 0 0 0 0 0 0 28 0 0 0 
		10 0 0 0 0 0 0 0 0 26 0 0 0 0 0 0 0 0 0 0 0 0 0 0 0 0 26 0 0 0 0 0 
		11 0 0 0 0 0 0 0 0 34 0 0 0 0 0 0 0 24 0 0 0 0 0 0 0 0 0 0 0 0 0 0 
		12 0 0 0 0 0 0 0 30 0 0 0 0 0 0 0 0 0 0 0 28 0 0 0 34 0 0 0 32 0 0 0 
		13 0 0 0 0 0 0 0 0 0 0 0 0 0 0 0 0 0 0 0 0 0 0 27 0 21 0 25 0 0 0 0 
		14 0 0 0 0 0 33 0 20 0 0 0 0 0 0 0 0 21 0 0 0 0 0 0 0 0 0 0 0 23 0 0 
		15 0 0 0 0 0 0 0 0 0 0 0 0 0 0 0 0 0 0 0 0 0 20 21 0 0 0 0 0 0 0 0 
		16 0 0 0 0 26 0 0 0 0 0 0 24 0 0 21 0 0 0 0 0 0 0 0 0 0 0 0 0 0 0 0 
		17 0 0 0 0 0 0 0 0 31 0 0 0 0 0 0 0 0 0 0 0 0 0 0 0 0 0 0 0 0 0 0 
		18 0 0 32 0 0 0 0 0 0 0 0 0 0 0 0 0 0 0 0 0 0 0 0 0 0 0 0 28 0 0 0 
		19 0 0 0 0 0 25 0 0 0 0 0 0 28 0 0 0 0 0 0 0 0 0 0 0 0 0 0 39 0 0 0 
		20 0 21 0 0 34 0 0 0 0 0 0 0 0 0 0 0 0 0 0 0 0 0 0 0 0 0 0 0 0 0 21 
		21 0 28 0 0 0 0 0 0 21 0 0 0 0 0 0 20 0 0 0 0 0 0 0 0 0 0 0 0 0 0 0 
		22 0 0 0 0 0 0 0 0 0 0 0 0 0 27 0 21 0 0 0 0 0 0 0 0 26 0 0 0 0 0 0 
		23 0 0 0 0 0 0 0 28 0 0 0 0 34 0 0 0 0 0 0 0 0 0 0 0 0 37 0 0 0 31 0 
		24 0 0 0 0 0 31 0 0 21 0 0 0 0 21 0 0 0 0 0 0 0 0 26 0 0 0 0 0 0 0 0 
		25 0 0 34 0 0 0 0 32 0 0 26 0 0 0 0 0 0 0 0 0 0 0 0 37 0 0 0 0 0 39 20 
		26 0 0 0 0 0 0 35 0 0 0 0 0 0 25 0 0 0 0 0 0 0 0 0 0 0 0 0 0 0 25 0 
		27 0 0 0 0 0 0 37 40 21 28 0 0 32 0 0 0 0 0 28 39 0 0 0 0 0 0 0 0 0 0 0 
		28 0 0 30 0 0 27 0 0 0 0 0 0 0 0 23 0 0 0 0 0 0 0 0 0 0 0 0 0 0 0 0 
		29 0 0 0 0 0 0 0 0 26 0 0 0 0 0 0 0 0 0 0 0 0 0 0 31 0 39 25 0 0 0 38 
		30 0 0 0 0 0 0 0 0 0 0 0 0 0 0 0 0 0 0 0 0 21 0 0 0 0 20 0 0 0 38 0 
;
